3 
4 
5  00 16 31 46 
6  02 12 17 22 27 32 37 42 47 52 57 
7  02 07 12 17 22 27 32 37 42 47 52 57 
8  02 07 12 17 22 27 32 37 42 47 52 57 
9  02 07 12 17 22 27 33 39 47 54 
10  02 09 17 24 32 39 47 54 
11  02 09 17 24 32 39 47 54 
12  02 09 17 24 32 39 47 54 
13  02 09 16 24 32 39 47 54 
14  02 09 16 24 32 39 47 52 57 
15  01 07 12 17 22 27 31 37 42 46 52 57 
16  01 07 12 16 22 27 31 37 42 46 52 57 
17  01 07 12 16 22 27 31 37 42 47 52 57 
18  02 07 12 17 22 27 32 37 43 49 55 
19  02 09 17 24 32 39 47 53 
20  00 08 16 23 34 49 56 
21  04 19 34 49 59 
22  14 29 45 
23  00 
0 
